NAME          
ROWS
 N  OBJ
 L  c1
 L  c2
 L  c3
COLUMNS
    MARKER    'MARKER'                 'INTORG'
    x[1]      c1        554
    x[1]      c2        601
    x[1]      c3        233
    x[1]      OBJ       -536
    x[2]      c1        978
    x[2]      c2        947
    x[2]      c3        646
    x[2]      OBJ       -90
    x[3]      c1        547
    x[3]      c2        449
    x[3]      c3        114
    x[3]      OBJ       -138
    x[4]      c1        499
    x[4]      c2        302
    x[4]      c3        479
    x[4]      OBJ       -392
    x[5]      c1        255
    x[5]      c2        359
    x[5]      c3        670
    x[5]      OBJ       -134
    x[6]      c1        415
    x[6]      c2        78
    x[6]      c3        428
    x[6]      OBJ       -466
    x[7]      c1        708
    x[7]      c2        704
    x[7]      c3        451
    x[7]      OBJ       -792
    x[8]      c1        264
    x[8]      c2        331
    x[8]      c3        964
    x[8]      OBJ       -855
    x[9]      c1        327
    x[9]      c2        400
    x[9]      c3        428
    x[9]      OBJ       -117
    x[10]     c1        88
    x[10]     c2        828
    x[10]     c3        264
    x[10]     OBJ       -739
    x[11]     c1        107
    x[11]     c2        96
    x[11]     c3        856
    x[11]     OBJ       -768
    x[12]     c1        250
    x[12]     c2        464
    x[12]     c3        684
    x[12]     OBJ       -900
    x[13]     c1        300
    x[13]     c2        220
    x[13]     c3        387
    x[13]     OBJ       -180
    x[14]     c1        603
    x[14]     c2        397
    x[14]     c3        907
    x[14]     OBJ       -83
    x[15]     c1        663
    x[15]     c2        683
    x[15]     c3        757
    x[15]     OBJ       -842
    x[16]     c1        215
    x[16]     c2        972
    x[16]     c3        354
    x[16]     OBJ       -322
    x[17]     c1        638
    x[17]     c2        423
    x[17]     c3        444
    x[17]     OBJ       -913
    x[18]     c1        474
    x[18]     c2        91
    x[18]     c3        88
    x[18]     OBJ       -27
    x[19]     c1        18
    x[19]     c2        251
    x[19]     c3        839
    x[19]     OBJ       -15
    x[20]     c1        333
    x[20]     c2        589
    x[20]     c3        373
    x[20]     OBJ       -266
    x[21]     c1        717
    x[21]     c2        603
    x[21]     c3        242
    x[21]     OBJ       -508
    x[22]     c1        425
    x[22]     c2        707
    x[22]     c3        408
    x[22]     OBJ       -956
    x[23]     c1        237
    x[23]     c2        370
    x[23]     c3        836
    x[23]     OBJ       -942
    x[24]     c1        624
    x[24]     c2        743
    x[24]     c3        803
    x[24]     OBJ       -304
    x[25]     c1        391
    x[25]     c2        839
    x[25]     c3        793
    x[25]     OBJ       -576
    x[26]     c1        448
    x[26]     c2        796
    x[26]     c3        596
    x[26]     OBJ       -431
    x[27]     c1        473
    x[27]     c2        299
    x[27]     c3        568
    x[27]     OBJ       -393
    x[28]     c1        660
    x[28]     c2        638
    x[28]     c3        96
    x[28]     OBJ       -600
    x[29]     c1        632
    x[29]     c2        838
    x[29]     c3        602
    x[29]     OBJ       -512
    x[30]     c1        380
    x[30]     c2        390
    x[30]     c3        827
    x[30]     OBJ       -145
RHS
    rhs       c1        6612
    rhs       c2        7704
    rhs       c3        8068
RANGES
BOUNDS
 LO bounds    x[1]      0
 PL bounds    x[1]
 LO bounds    x[2]      0
 PL bounds    x[2]
 LO bounds    x[3]      0
 PL bounds    x[3]
 LO bounds    x[4]      0
 PL bounds    x[4]
 LO bounds    x[5]      0
 PL bounds    x[5]
 LO bounds    x[6]      0
 PL bounds    x[6]
 LO bounds    x[7]      0
 PL bounds    x[7]
 LO bounds    x[8]      0
 PL bounds    x[8]
 LO bounds    x[9]      0
 PL bounds    x[9]
 LO bounds    x[10]     0
 PL bounds    x[10]
 LO bounds    x[11]     0
 PL bounds    x[11]
 LO bounds    x[12]     0
 PL bounds    x[12]
 LO bounds    x[13]     0
 PL bounds    x[13]
 LO bounds    x[14]     0
 PL bounds    x[14]
 LO bounds    x[15]     0
 PL bounds    x[15]
 LO bounds    x[16]     0
 PL bounds    x[16]
 LO bounds    x[17]     0
 PL bounds    x[17]
 LO bounds    x[18]     0
 PL bounds    x[18]
 LO bounds    x[19]     0
 PL bounds    x[19]
 LO bounds    x[20]     0
 PL bounds    x[20]
 LO bounds    x[21]     0
 PL bounds    x[21]
 LO bounds    x[22]     0
 PL bounds    x[22]
 LO bounds    x[23]     0
 PL bounds    x[23]
 LO bounds    x[24]     0
 PL bounds    x[24]
 LO bounds    x[25]     0
 PL bounds    x[25]
 LO bounds    x[26]     0
 PL bounds    x[26]
 LO bounds    x[27]     0
 PL bounds    x[27]
 LO bounds    x[28]     0
 PL bounds    x[28]
 LO bounds    x[29]     0
 PL bounds    x[29]
 LO bounds    x[30]     0
 PL bounds    x[30]
ENDATA
